Set parameter Username
Set parameter Threads to value 1
Academic license - for non-commercial use only - expires 2022-07-11
Set parameter TimeLimit to value 300
Gurobi Optimizer version 9.5.1 build v9.5.1rc2 (linux64)
Thread count: 2 physical cores, 4 logical processors, using up to 1 threads
Optimize a model with 880 rows, 820 columns and 3258 nonzeros
Model fingerprint: 0x5a666152
Variable types: 20 continuous, 800 integer (800 binary)
Coefficient statistics:
  Matrix range     [1e+00, 5e+02]
  Objective range  [4e+01, 5e+02]
  Bounds range     [1e+00, 1e+00]
  RHS range        [1e+00, 1e+03]
Presolve removed 602 rows and 519 columns
Presolve time: 0.18s
Presolved: 278 rows, 301 columns, 1580 nonzeros
Variable types: 17 continuous, 284 integer (284 binary)

Root relaxation: objective 1.090000e+03, 401 iterations, 0.01 seconds (0.01 work units)

    Nodes    |    Current Node    |     Objective Bounds      |     Work
 Expl Unexpl |  Obj  Depth IntInf | Incumbent    BestBd   Gap | It/Node Time

     0     0 1090.00000    0   36          - 1090.00000      -     -    0s
H    0     0                    2887.0000000 1090.00000  62.2%     -    0s
     0     0 1117.61314    0   51 2887.00000 1117.61314  61.3%     -    0s
H    0     0                    2819.0000000 1117.61314  60.4%     -    0s
     0     0 1118.41534    0   54 2819.00000 1118.41534  60.3%     -    0s
     0     0 1293.74040    0   61 2819.00000 1293.74040  54.1%     -    0s
H    0     0                    2606.0000000 1293.74040  50.4%     -    0s
H    0     0                    2491.0000000 1293.74040  48.1%     -    0s
     0     0 1302.76088    0   61 2491.00000 1302.76088  47.7%     -    0s
     0     0 1304.08360    0   59 2491.00000 1304.08360  47.6%     -    0s
     0     0 1304.10722    0   62 2491.00000 1304.10722  47.6%     -    0s
     0     0 1317.18329    0   63 2491.00000 1317.18329  47.1%     -    0s
     0     0 1344.22415    0   61 2491.00000 1344.22415  46.0%     -    0s
     0     0 1346.43149    0   61 2491.00000 1346.43149  45.9%     -    0s
     0     0 1346.55472    0   62 2491.00000 1346.55472  45.9%     -    0s
     0     0 1347.09295    0   62 2491.00000 1347.09295  45.9%     -    0s
     0     0 1347.12674    0   62 2491.00000 1347.12674  45.9%     -    0s
     0     0 1363.12927    0   70 2491.00000 1363.12927  45.3%     -    0s
     0     0 1366.41321    0   67 2491.00000 1366.41321  45.1%     -    0s
     0     0 1366.50041    0   70 2491.00000 1366.50041  45.1%     -    0s
     0     0 1368.15655    0   64 2491.00000 1368.15655  45.1%     -    0s
H    0     0                    2289.0000000 1368.15655  40.2%     -    0s
     0     0 1368.66407    0   64 2289.00000 1368.66407  40.2%     -    0s
     0     0 1368.85580    0   65 2289.00000 1368.85580  40.2%     -    0s
     0     0 1369.12760    0   65 2289.00000 1369.12760  40.2%     -    0s
     0     0 1369.35840    0   65 2289.00000 1369.35840  40.2%     -    0s
     0     0 1369.35840    0   65 2289.00000 1369.35840  40.2%     -    0s
H    0     0                    2051.0000000 1369.35840  33.2%     -    0s
     0     2 1401.35317    0   65 2051.00000 1401.35317  31.7%     -    0s
H  217   127                    2037.0000000 1512.90758  25.7%  15.7    0s
H  342   161                    2030.0000000 1576.47999  22.3%  14.6    0s
*  598   197              17    2018.0000000 1680.89707  16.7%  13.7    0s
H  730   175                    1977.0000000 1748.95433  11.5%  13.9    0s

Cutting planes:
  Cover: 53
  Implied bound: 7
  Clique: 25
  MIR: 61
  GUB cover: 14
  Zero half: 1
  RLT: 1
  Relax-and-lift: 26

Explored 1259 nodes (17154 simplex iterations) in 1.02 seconds (0.55 work units)
Thread count was 1 (of 4 available processors)

Solution count 10: 1977 2018 2030 ... 2887

Optimal solution found (tolerance 1.00e-04)
Best objective 1.977000000000e+03, best bound 1.977000000000e+03, gap 0.0000%
